
Gurobi 12.0.3 (mac64[arm], Python) logging started Wed Oct 29 21:09:07 2025

Set parameter Username
Set parameter LicenseID to value 2719285
Set parameter LogFile to value "gurobi.log"
Academic license - for non-commercial use only - expires 2026-10-07
Warning: Numeric variable name in LP file ('3x1') - often the result
         of a constant term in the left-hand side of a constraint.

Read LP format model from file primal.lp
Reading time = 0.00 seconds
: 3 rows, 6 columns, 5 nonzeros
Gurobi Optimizer version 12.0.3 build v12.0.3rc0 (mac64[arm] - Darwin 24.6.0 24G90)

CPU model: Apple M4
Thread count: 10 physical cores, 10 logical processors, using up to 10 threads

Optimize a model with 3 rows, 6 columns and 5 nonzeros
Model fingerprint: 0xe128dff7
Coefficient statistics:
  Matrix range     [1e+00, 1e+00]
  Objective range  [1e+00, 1e+00]
  Bounds range     [0e+00, 0e+00]
  RHS range        [6e+01, 2e+02]
Presolve time: 0.00s

Solved in 0 iterations and 0.00 seconds (0.00 work units)
Infeasible or unbounded model
Read LP format model from file primal.lp
Reading time = 0.00 seconds
: 3 rows, 2 columns, 5 nonzeros
Gurobi Optimizer version 12.0.3 build v12.0.3rc0 (mac64[arm] - Darwin 24.6.0 24G90)

CPU model: Apple M4
Thread count: 10 physical cores, 10 logical processors, using up to 10 threads

Optimize a model with 3 rows, 2 columns and 5 nonzeros
Model fingerprint: 0xff1c659b
Coefficient statistics:
  Matrix range     [1e+00, 2e+00]
  Objective range  [3e+00, 4e+00]
  Bounds range     [0e+00, 0e+00]
  RHS range        [6e+01, 2e+02]
Presolve removed 1 rows and 0 columns
Presolve time: 0.00s
Presolved: 2 rows, 2 columns, 4 nonzeros

Iteration    Objective       Primal Inf.    Dual Inf.      Time
       0    9.6000000e+02   8.250000e+01   0.000000e+00      0s
       2    4.6000000e+02   0.000000e+00   0.000000e+00      0s

Solved in 2 iterations and 0.00 seconds (0.00 work units)
Optimal objective  4.600000000e+02

    Variable            X 
-------------------------
          x1          100 
          x2           40 
Read LP format model from file dual.lp
Reading time = 0.00 seconds
: 2 rows, 3 columns, 5 nonzeros
Gurobi Optimizer version 12.0.3 build v12.0.3rc0 (mac64[arm] - Darwin 24.6.0 24G90)

CPU model: Apple M4
Thread count: 10 physical cores, 10 logical processors, using up to 10 threads

Optimize a model with 2 rows, 3 columns and 5 nonzeros
Model fingerprint: 0xf1b53ebe
Coefficient statistics:
  Matrix range     [1e+00, 2e+00]
  Objective range  [6e+01, 2e+02]
  Bounds range     [0e+00, 0e+00]
  RHS range        [3e+00, 4e+00]
Presolve time: 0.00s
Presolved: 2 rows, 3 columns, 5 nonzeros

Iteration    Objective       Primal Inf.    Dual Inf.      Time
       0    0.0000000e+00   3.500000e+00   0.000000e+00      0s
       3    4.6000000e+02   0.000000e+00   0.000000e+00      0s

Solved in 3 iterations and 0.00 seconds (0.00 work units)
Optimal objective  4.600000000e+02

    Variable            X 
-------------------------
          y1     0.666667 
          y2      1.66667 
